53
28 15 201
15 45 156
45 24 173
24 27 329
27 26 110
26 25 126
25 46 186
46 12 324
12 13 206
13 51 319
51 10 399
10 50 285
50 11 188
11 3 294
3 5 70
5 14 40
14 4 25
4 23 32
23 47 16
47 37 49
37 36 43
36 39 41
39 38 43
38 33 59
33 43 80
43 34 96
34 35 15
35 48 81
48 31 50
31 21 97
21 30 104
30 17 80
17 44 228
44 42 337
42 32 365
32 9 501
9 8 83
8 7 183
7 40 64
40 18 92
18 2 207
2 16 217
16 20 253
20 41 290
41 6 76
6 1 45
1 52 187
52 29 480
29 22 179
22 19 94
19 49 35
49 28 191

